Maximize
F - ff - gg

Subject to
F - f1 - f2 - f3 - f4 = 0
f1 - 20X85 - 20X121 - 30X131 = 0
f2 = 0
f3 = 0
f4 - 4.0V85 - 4.0V121 - 6.0V131 = 0

ff - 0.027397s85 - 0.027397s121 - 0.027397s131 


- 0.027397r85 - 0.027397r121 - 0.027397r131 
= 0
gg 

- 3.810037V85 - 3.575825V121 - 3.470356V131 = 0

n1 - X85 - X121 - X131 = 0
n2 = 0
n3 = 0
n4 - V85 - V121 - V131 = 0



X85 + V85 <= 1
X121 + V121 <= 1
X131 + V131 <= 1


x187x131x1 

<= 2

x156x131x1 

<= 2
x35x131x1 

<= 2
x60x131x1 

<= 1


x108x131x1 

<= 1






x4x121x2 

<= 2




x59x121x2 

<= 1

x20x121x2 

<= 1
x208x121x2 

<= 1
x64x121x2 

<= 2
x160x121x2 

<= 1
x12x85x3 

<= 1




x60x85x3 

<= 1
x70x85x3 

<= 1
x59x85x3 

<= 1
x108x85x3 

<= 1
x20x85x3 

<= 1
x208x85x3 

<= 1

x160x85x3 

<= 1

x187x131x1 

<= 2

x156x131x1 

<= 2
x35x131x1 

<= 2
x60x131x1 

<= 1


x108x131x1 

<= 1






x4x121x2 

<= 2




x59x121x2 

<= 1

x20x121x2 

<= 1
x208x121x2 

<= 1
x64x121x2 

<= 2
x160x121x2 

<= 1
x12x85x3 

<= 1




x60x85x3 

<= 1
x70x85x3 

<= 1
x59x85x3 

<= 1
x108x85x3 

<= 1
x20x85x3 

<= 1
x208x85x3 

<= 1

x160x85x3 

<= 1

x187x131x1 
+ v187v131v1 
<= 2

x156x131x1 
+ v156v131v1 
<= 2
x35x131x1 
+ v35v131v1 
<= 2
x60x131x1 
+ v60v131v1 
<= 1


x108x131x1 
+ v108v131v1 
<= 1






x4x121x2 
+ v4v121v2 
<= 2




x59x121x2 
+ v59v121v2 
<= 1

x20x121x2 
+ v20v121v2 
<= 1
x208x121x2 
+ v208v121v2 
<= 1
x64x121x2 
+ v64v121v2 
<= 2
x160x121x2 
+ v160v121v2 
<= 1
x12x85x3 
+ v12v85v3 
<= 1




x60x85x3 
+ v60v85v3 
<= 1
x70x85x3 
+ v70v85v3 
<= 1
x59x85x3 
+ v59v85v3 
<= 1
x108x85x3 
+ v108v85v3 
<= 1
x20x85x3 
+ v20v85v3 
<= 1
x208x85x3 
+ v208v85v3 
<= 1

x160x85x3 
+ v160v85v3 
<= 1
x12x85x3 + x60x85x3 + x70x85x3 + x59x85x3 + x108x85x3 + x20x85x3 + x208x85x3 + x160x85x3 
= 0

x4x121x2 + x59x121x2 + x20x121x2 + x208x121x2 + x64x121x2 + x160x121x2 
= 0

x187x131x1 + x156x131x1 + x35x131x1 + x60x131x1 + x108x131x1 
= 0


x12x85x3 + x60x85x3 + x70x85x3 + x59x85x3 + x108x85x3 + x20x85x3 + x208x85x3 + x160x85x3 
= 0

x4x121x2 + x59x121x2 + x20x121x2 + x208x121x2 + x64x121x2 + x160x121x2 
= 0

x187x131x1 + x156x131x1 + x35x131x1 + x60x131x1 + x108x131x1 
= 0


x12x85x3 + x60x85x3 + x70x85x3 + x59x85x3 + x108x85x3 + x20x85x3 + x208x85x3 + x160x85x3 
+ v12v85v3 + v60v85v3 + v70v85v3 + v59v85v3 + v108v85v3 + v20v85v3 + v208v85v3 + v160v85v3 
= 0

x4x121x2 + x59x121x2 + x20x121x2 + x208x121x2 + x64x121x2 + x160x121x2 
+ v4v121v2 + v59v121v2 + v20v121v2 + v208v121v2 + v64v121v2 + v160v121v2 
= 0

x187x131x1 + x156x131x1 + x35x131x1 + x60x131x1 + x108x131x1 
+ v187v131v1 + v156v131v1 + v35v131v1 + v60v131v1 + v108v131v1 
= 0


2X85 - x12x85x3 - x60x85x3 - x70x85x3 - x59x85x3 - x108x85x3 - x20x85x3 - x208x85x3 - x160x85x3 = 0
2X121 - x4x121x2 - x59x121x2 - x20x121x2 - x208x121x2 - x64x121x2 - x160x121x2 = 0
2X131 - x187x131x1 - x156x131x1 - x35x131x1 - x60x131x1 - x108x131x1 = 0



2V85 - v12v85v3 - v60v85v3 - v70v85v3 - v59v85v3 - v108v85v3 - v20v85v3 - v208v85v3 - v160v85v3 = 0
2V121 - v4v121v2 - v59v121v2 - v20v121v2 - v208v121v2 - v64v121v2 - v160v121v2 = 0
2V131 - v187v131v1 - v156v131v1 - v35v131v1 - v60v131v1 - v108v131v1 = 0


s12 - s85 + 5.563688a12a85a3 <= 3.95
s187 - s131 + 6.070340a187a131a1 <= 4.43
s4 - s121 + 6.271069a4a121a2 <= 4.50
s156 - s131 + 6.137674a156a131a1 <= 4.81
s35 - s131 + 6.451525a35a131a1 <= 5.27
s60 - s85 + 6.336219a60a85a3 <= 5.19
s60 - s131 + 6.367098a60a131a1 <= 5.19
s70 - s85 + 5.753691a70a85a3 <= 4.61
s59 - s85 + 6.920283a59a85a3 <= 5.35
s59 - s121 + 6.917340a59a121a2 <= 5.35
s108 - s85 + 6.908655a108a85a3 <= 5.35
s108 - s131 + 6.866133a108a131a1 <= 5.35
s20 - s85 + 6.986040a20a85a3 <= 5.44
s20 - s121 + 6.982145a20a121a2 <= 5.44
s208 - s85 + 6.521076a208a85a3 <= 5.50
s208 - s121 + 6.556667a208a121a2 <= 5.50
s64 - s121 + 6.795942a64a121a2 <= 5.74
s160 - s85 + 6.672007a160a85a3 <= 5.67
s160 - s121 + 6.712481a160a121a2 <= 5.67



r12 - r85 + 5.563688d12d85d3 <= 3.95
r187 - r131 + 6.070340d187d131d1 <= 4.43
r4 - r121 + 6.271069d4d121d2 <= 4.50
r156 - r131 + 6.137674d156d131d1 <= 4.81
r35 - r131 + 6.451525d35d131d1 <= 5.27
r60 - r85 + 6.336219d60d85d3 <= 5.19
r60 - r131 + 6.367098d60d131d1 <= 5.19
r70 - r85 + 5.753691d70d85d3 <= 4.61
r59 - r85 + 6.920283d59d85d3 <= 5.35
r59 - r121 + 6.917340d59d121d2 <= 5.35
r108 - r85 + 6.908655d108d85d3 <= 5.35
r108 - r131 + 6.866133d108d131d1 <= 5.35
r20 - r85 + 6.986040d20d85d3 <= 5.44
r20 - r121 + 6.982145d20d121d2 <= 5.44
r208 - r85 + 6.521076d208d85d3 <= 5.50
r208 - r121 + 6.556667d208d121d2 <= 5.50
r64 - r121 + 6.795942d64d121d2 <= 5.74
r160 - r85 + 6.672007d160d85d3 <= 5.67
r160 - r121 + 6.712481d160d121d2 <= 5.67

x12x85x3 + x60x85x3 + x70x85x3 + x59x85x3 + x108x85x3 + x20x85x3 + x208x85x3 + x160x85x3 

- 2w85 <= 0

x4x121x2 + x59x121x2 + x20x121x2 + x208x121x2 + x64x121x2 + x160x121x2 

- 2w121 <= 0

x187x131x1 + x156x131x1 + x35x131x1 + x60x131x1 + x108x131x1 

- 2w131 <= 0

x12x85x3 + x60x85x3 + x70x85x3 + x59x85x3 + x108x85x3 + x20x85x3 + x208x85x3 + x160x85x3 

- w85 >= 0

x4x121x2 + x59x121x2 + x20x121x2 + x208x121x2 + x64x121x2 + x160x121x2 

- w121 >= 0

x187x131x1 + x156x131x1 + x35x131x1 + x60x131x1 + x108x131x1 

- w131 >= 0

s12 - t12 + 3.95w12 <= 3.95
s187 - t187 + 4.43w187 <= 4.43
s4 - t4 + 4.50w4 <= 4.50
s156 - t156 + 4.81w156 <= 4.81
s35 - t35 + 5.27w35 <= 5.27
s60 - t60 + 5.19w60 <= 5.19
s70 - t70 + 4.61w70 <= 4.61
s59 - t59 + 5.35w59 <= 5.35
s108 - t108 + 5.35w108 <= 5.35
s20 - t20 + 5.44w20 <= 5.44
s208 - t208 + 5.50w208 <= 5.50
s64 - t64 + 5.74w64 <= 5.74
s160 - t160 + 5.67w160 <= 5.67
s85 - t85 + 6.00w85 <= 6.00
s121 - t121 + 6.14w121 <= 6.14
s131 - t131 + 6.11w131 <= 6.11
s12 - u12 + 3.95w12 <= 3.95
s187 - u187 + 4.43w187 <= 4.43
s4 - u4 + 4.50w4 <= 4.50
s156 - u156 + 4.81w156 <= 4.81
s35 - u35 + 5.27w35 <= 5.27
s60 - u60 + 5.19w60 <= 5.19
s70 - u70 + 4.61w70 <= 4.61
s59 - u59 + 5.35w59 <= 5.35
s108 - u108 + 5.35w108 <= 5.35
s20 - u20 + 5.44w20 <= 5.44
s208 - u208 + 5.50w208 <= 5.50
s64 - u64 + 5.74w64 <= 5.74
s160 - u160 + 5.67w160 <= 5.67
s85 - u85 + 6.00w85 <= 6.00
s121 - u121 + 6.14w121 <= 6.14
s131 - u131 + 6.11w131 <= 6.11
s12 - r12 + 3.95w12 <= 3.95
s187 - r187 + 4.43w187 <= 4.43
s4 - r4 + 4.50w4 <= 4.50
s156 - r156 + 4.81w156 <= 4.81
s35 - r35 + 5.27w35 <= 5.27
s60 - r60 + 5.19w60 <= 5.19
s70 - r70 + 4.61w70 <= 4.61
s59 - r59 + 5.35w59 <= 5.35
s108 - r108 + 5.35w108 <= 5.35
s20 - r20 + 5.44w20 <= 5.44
s208 - r208 + 5.50w208 <= 5.50
s64 - r64 + 5.74w64 <= 5.74
s160 - r160 + 5.67w160 <= 5.67
s85 - r85 + 6.00w85 <= 6.00
s121 - r121 + 6.14w121 <= 6.14
s131 - r131 + 6.11w131 <= 6.11

s12 - t12 - 3.95w12 >= -3.95
s187 - t187 - 4.43w187 >= -4.43
s4 - t4 - 4.50w4 >= -4.50
s156 - t156 - 4.81w156 >= -4.81
s35 - t35 - 5.27w35 >= -5.27
s60 - t60 - 5.19w60 >= -5.19
s70 - t70 - 4.61w70 >= -4.61
s59 - t59 - 5.35w59 >= -5.35
s108 - t108 - 5.35w108 >= -5.35
s20 - t20 - 5.44w20 >= -5.44
s208 - t208 - 5.50w208 >= -5.50
s64 - t64 - 5.74w64 >= -5.74
s160 - t160 - 5.67w160 >= -5.67
s85 - t85 - 20.00w85 >= -20.00
s121 - t121 - 20.00w121 >= -20.00
s131 - t131 - 20.00w131 >= -20.00


s12 - u12 - 3.95w12 >= -3.95
s187 - u187 - 4.43w187 >= -4.43
s4 - u4 - 4.50w4 >= -4.50
s156 - u156 - 4.81w156 >= -4.81
s35 - u35 - 5.27w35 >= -5.27
s60 - u60 - 5.19w60 >= -5.19
s70 - u70 - 4.61w70 >= -4.61
s59 - u59 - 5.35w59 >= -5.35
s108 - u108 - 5.35w108 >= -5.35
s20 - u20 - 5.44w20 >= -5.44
s208 - u208 - 5.50w208 >= -5.50
s64 - u64 - 5.74w64 >= -5.74
s160 - u160 - 5.67w160 >= -5.67
s85 - u85 - 20.00w85 >= -20.00
s121 - u121 - 20.00w121 >= -20.00
s131 - u131 - 20.00w131 >= -20.00


s12 - r12 - 3.95w12 >= -3.95
s187 - r187 - 4.43w187 >= -4.43
s4 - r4 - 4.50w4 >= -4.50
s156 - r156 - 4.81w156 >= -4.81
s35 - r35 - 5.27w35 >= -5.27
s60 - r60 - 5.19w60 >= -5.19
s70 - r70 - 4.61w70 >= -4.61
s59 - r59 - 5.35w59 >= -5.35
s108 - r108 - 5.35w108 >= -5.35
s20 - r20 - 5.44w20 >= -5.44
s208 - r208 - 5.50w208 >= -5.50
s64 - r64 - 5.74w64 >= -5.74
s160 - r160 - 5.67w160 >= -5.67
s85 - r85 - 6.00w85 >= -6.00
s121 - r121 - 6.14w121 >= -6.14
s131 - r131 - 6.11w131 >= -6.11


s85 + 6.00a12a85a3 <= 12.00
s85 + 6.00a60a85a3 <= 12.00
s85 + 6.00a70a85a3 <= 12.00
s85 + 6.00a59a85a3 <= 12.00
s85 + 6.00a108a85a3 <= 12.00
s85 + 6.00a20a85a3 <= 12.00
s85 + 6.00a208a85a3 <= 12.00
s85 + 6.00a160a85a3 <= 12.00
s121 + 6.14a4a121a2 <= 12.14
s121 + 6.14a59a121a2 <= 12.14
s121 + 6.14a20a121a2 <= 12.14
s121 + 6.14a208a121a2 <= 12.14
s121 + 6.14a64a121a2 <= 12.14
s121 + 6.14a160a121a2 <= 12.14
s131 + 6.11a187a131a1 <= 12.11
s131 + 6.11a156a131a1 <= 12.11
s131 + 6.11a35a131a1 <= 12.11
s131 + 6.11a60a131a1 <= 12.11
s131 + 6.11a108a131a1 <= 12.11


r85 - 6.0d12d85d3 > 0
r85 - 6.0d60d85d3 > 0
r85 - 6.0d70d85d3 > 0
r85 - 6.0d59d85d3 > 0
r85 - 6.0d108d85d3 > 0
r85 - 6.0d20d85d3 > 0
r85 - 6.0d208d85d3 > 0
r85 - 6.0d160d85d3 > 0
r121 - 6.0d4d121d2 > 0
r121 - 6.0d59d121d2 > 0
r121 - 6.0d20d121d2 > 0
r121 - 6.0d208d121d2 > 0
r121 - 6.0d64d121d2 > 0
r121 - 6.0d160d121d2 > 0
r131 - 6.0d187d131d1 > 0
r131 - 6.0d156d131d1 > 0
r131 - 6.0d35d131d1 > 0
r131 - 6.0d60d131d1 > 0
r131 - 6.0d108d131d1 > 0


a12a85a3 + b12b85b3 <= 1
a60a85a3 + b60b85b3 <= 1
a70a85a3 + b70b85b3 <= 1
a59a85a3 + b59b85b3 <= 1
a108a85a3 + b108b85b3 <= 1
a20a85a3 + b20b85b3 <= 1
a208a85a3 + b208b85b3 <= 1
a160a85a3 + b160b85b3 <= 1
a4a121a2 + b4b121b2 <= 1
a59a121a2 + b59b121b2 <= 1
a20a121a2 + b20b121b2 <= 1
a208a121a2 + b208b121b2 <= 1
a64a121a2 + b64b121b2 <= 1
a160a121a2 + b160b121b2 <= 1
a187a131a1 + b187b131b1 <= 1
a156a131a1 + b156b131b1 <= 1
a35a131a1 + b35b131b1 <= 1
a60a131a1 + b60b131b1 <= 1
a108a131a1 + b108b131b1 <= 1


a12a85a3 + c12c85c3 <= 1
a60a85a3 + c60c85c3 <= 1
a70a85a3 + c70c85c3 <= 1
a59a85a3 + c59c85c3 <= 1
a108a85a3 + c108c85c3 <= 1
a20a85a3 + c20c85c3 <= 1
a208a85a3 + c208c85c3 <= 1
a160a85a3 + c160c85c3 <= 1
a4a121a2 + c4c121c2 <= 1
a59a121a2 + c59c121c2 <= 1
a20a121a2 + c20c121c2 <= 1
a208a121a2 + c208c121c2 <= 1
a64a121a2 + c64c121c2 <= 1
a160a121a2 + c160c121c2 <= 1
a187a131a1 + c187c131c1 <= 1
a156a131a1 + c156c131c1 <= 1
a35a131a1 + c35c131c1 <= 1
a60a131a1 + c60c131c1 <= 1
a108a131a1 + c108c131c1 <= 1


a12a85a3 + d12d85d3 <= 1
a60a85a3 + d60d85d3 <= 1
a70a85a3 + d70d85d3 <= 1
a59a85a3 + d59d85d3 <= 1
a108a85a3 + d108d85d3 <= 1
a20a85a3 + d20d85d3 <= 1
a208a85a3 + d208d85d3 <= 1
a160a85a3 + d160d85d3 <= 1
a4a121a2 + d4d121d2 <= 1
a59a121a2 + d59d121d2 <= 1
a20a121a2 + d20d121d2 <= 1
a208a121a2 + d208d121d2 <= 1
a64a121a2 + d64d121d2 <= 1
a160a121a2 + d160d121d2 <= 1
a187a131a1 + d187d131d1 <= 1
a156a131a1 + d156d131d1 <= 1
a35a131a1 + d35d131d1 <= 1
a60a131a1 + d60d131d1 <= 1
a108a131a1 + d108d131d1 <= 1

x12x85x3 - 2a12a85a3 <= 0
x187x131x1 - 2a187a131a1 <= 0
x4x121x2 - 2a4a121a2 <= 0
x156x131x1 - 2a156a131a1 <= 0
x35x131x1 - 2a35a131a1 <= 0
x60x85x3 - 2a60a85a3 <= 0
x60x131x1 - 2a60a131a1 <= 0
x70x85x3 - 2a70a85a3 <= 0
x59x85x3 - 2a59a85a3 <= 0
x59x121x2 - 2a59a121a2 <= 0
x108x85x3 - 2a108a85a3 <= 0
x108x131x1 - 2a108a131a1 <= 0
x20x85x3 - 2a20a85a3 <= 0
x20x121x2 - 2a20a121a2 <= 0
x208x85x3 - 2a208a85a3 <= 0
x208x121x2 - 2a208a121a2 <= 0
x64x121x2 - 2a64a121a2 <= 0
x160x85x3 - 2a160a85a3 <= 0
x160x121x2 - 2a160a121a2 <= 0
v12v85v3 - 2d12d85d3 <= 0
v187v131v1 - 2d187d131d1 <= 0
v4v121v2 - 2d4d121d2 <= 0
v156v131v1 - 2d156d131d1 <= 0
v35v131v1 - 2d35d131d1 <= 0
v60v85v3 - 2d60d85d3 <= 0
v60v131v1 - 2d60d131d1 <= 0
v70v85v3 - 2d70d85d3 <= 0
v59v85v3 - 2d59d85d3 <= 0
v59v121v2 - 2d59d121d2 <= 0
v108v85v3 - 2d108d85d3 <= 0
v108v131v1 - 2d108d131d1 <= 0
v20v85v3 - 2d20d85d3 <= 0
v20v121v2 - 2d20d121d2 <= 0
v208v85v3 - 2d208d85d3 <= 0
v208v121v2 - 2d208d121d2 <= 0
v64v121v2 - 2d64d121d2 <= 0
v160v85v3 - 2d160d85d3 <= 0
v160v121v2 - 2d160d121d2 <= 0

Bounds
s12 = 3.951951
t12 = 3.951951
u12 = 3.951951
r12 = 3.951951
s187 = 4.431974
t187 = 4.431974
u187 = 4.431974
r187 = 4.431974
s4 = 4.500240
t4 = 4.500240
u4 = 4.500240
r4 = 4.500240
s156 = 4.810804
t156 = 4.810804
u156 = 4.810804
r156 = 4.810804
s35 = 5.269560
t35 = 5.269560
u35 = 5.269560
r35 = 5.269560
s60 = 5.192615
t60 = 5.192615
u60 = 5.192615
r60 = 5.192615
s70 = 4.609777
t70 = 4.609777
u70 = 4.609777
r70 = 4.609777
s59 = 5.352520
t59 = 5.352520
u59 = 5.352520
r59 = 5.352520
s108 = 5.345450
t108 = 5.345450
u108 = 5.345450
r108 = 5.345450
s20 = 5.441981
t20 = 5.441981
u20 = 5.441981
r20 = 5.441981
s208 = 5.497039
t208 = 5.497039
u208 = 5.497039
r208 = 5.497039
s64 = 5.742609
t64 = 5.742609
u64 = 5.742609
r64 = 5.742609
s160 = 5.665340
t160 = 5.665340
u160 = 5.665340
r160 = 5.665340
5.00 <= s85 <= 6.00
5.14 <= s121 <= 6.14
5.11 <= s131 <= 6.11

0.00 <= t85 <= 20.00
0.00 <= t121 <= 20.00
0.00 <= t131 <= 20.00

0.00 <= u85 <= 20.00
0.00 <= u121 <= 20.00
0.00 <= u131 <= 20.00

5.00 <= r85 <= 6.00
5.14 <= r121 <= 6.14
5.11 <= r131 <= 6.11

General
x12x85x3 
x187x131x1 
x4x121x2 
x156x131x1 
x35x131x1 
x60x85x3 x60x131x1 
x70x85x3 
x59x85x3 x59x121x2 
x108x85x3 x108x131x1 
x20x85x3 x20x121x2 
x208x85x3 x208x121x2 
x64x121x2 
x160x85x3 x160x121x2 



v12v85v3 
v187v131v1 
v4v121v2 
v156v131v1 
v35v131v1 
v60v85v3 v60v131v1 
v70v85v3 
v59v85v3 v59v121v2 
v108v85v3 v108v131v1 
v20v85v3 v20v121v2 
v208v85v3 v208v121v2 
v64v121v2 
v160v85v3 v160v121v2 

Binaries
X85 X121 X131 


V85 V121 V131 

w85 w121 w131 

a12a85a3 
a187a131a1 
a4a121a2 
a156a131a1 
a35a131a1 
a60a85a3 a60a131a1 
a70a85a3 
a59a85a3 a59a121a2 
a108a85a3 a108a131a1 
a20a85a3 a20a121a2 
a208a85a3 a208a121a2 
a64a121a2 
a160a85a3 a160a121a2 



d12d85d3 
d187d131d1 
d4d121d2 
d156d131d1 
d35d131d1 
d60d85d3 d60d131d1 
d70d85d3 
d59d85d3 d59d121d2 
d108d85d3 d108d131d1 
d20d85d3 d20d121d2 
d208d85d3 d208d121d2 
d64d121d2 
d160d85d3 d160d121d2 

End